 &control
    calculation = 'scf',pseudo_dir="./", disk_io="none"
 /
 &system    
    ibrav=  1, celldm(1) =16, nat=  5, ntyp= 2,
    ecutwfc =30.0,  nbnd = 4,nosym=.true.,
    input_dft='xc-000i-000i-000i-000i-497l-498l',
 /
 &electrons
 /
ATOMIC_SPECIES
 C  12.0  C.pbe-hgh.UPF
 H   1.0  H.pbe-hgh.UPF
ATOMIC_POSITIONS (crystal)
C      0.4570010622     0.5063128759      0.5247731384 
H      0.5859984945     0.5063140570      0.5247731384 
H      0.4140027055     0.3952430396      0.5743205773 
H      0.4140027055     0.5189397899      0.4038105856 
H      0.4140015244     0.6047569793      0.5961894333 
K_POINTS crystal
1
 0.0  0.0  0.0  1.0
