 &control
    calculation = 'scf',pseudo_dir="./", disk_io="low",prefix="N2_hf",verbosity="high",
 /
 &system    
    ibrav=  1, celldm(1) =16, nat=  2, ntyp= 1,
    ecutwfc =30.0,  nbnd = 5,
    input_dft='HF',nspin = 1,occupations = 'fixed',
    exxdiv_treatment = 'none',
    x_gamma_extrapolation = .false.,
 /
 &electrons
 /
ATOMIC_SPECIES
 N  14.0  N.pbe-hgh.UPF
ATOMIC_POSITIONS (crystal)
N      0.0               0.0   0.0 
N      0.14763485355     0.0   0.0 
K_POINTS gamma
