 &control
    calculation = 'scf',pseudo_dir="./", disk_io="none"
 /
 &system    
    ibrav=  1, celldm(1) =16, nat=  2, ntyp= 1,
    ecutwfc =30.0,  nbnd = 5,
    input_dft='xc-000i-000i-101l-130l-000i-000i',
 /
 &electrons
 /
ATOMIC_SPECIES
 N  14.0  N.pbe-hgh.UPF
ATOMIC_POSITIONS (crystal)
N      0.0               0.0   0.0 
N      0.14763485355     0.0   0.0 
K_POINTS gamma
